benchmarks/VRPTW/TSPTW/solution/n40w80.001.txt.solution
1 18 34 12 40 22 9 39 19 10 37 38 15 29 35 25 14 36 32 3 17 24 21 33 26 6 13 8 31 7 2 27 5 11 23 4 16 30 28 41 20 
395
